WARNING: for repeatability, setting FPU to use double precision
============================[ Problem Statistics ]=============================
|                                                                             |
|  Number of variables:            50                                         |
|  Number of clauses:             218                                         |
|  Parse time:                   0.00 s                                       |
|                                                                             |
============================[ Search Statistics ]==============================
| Conflicts |          ORIGINAL         |          LEARNT          | Progress |
|           |    Vars  Clauses Literals |    Limit  Clauses Lit/Cl |          |
===============================================================================
===============================================================================
restarts              : 1
conflicts             : 15             (10949 /sec)
decisions             : 43             (0.00 % random) (31387 /sec)
propagations          : 204            (148905 /sec)
conflict literals     : 64             (3.03 % deleted)
Memory used           : 20.00 MB
CPU time              : 0.00137 s

SATISFIABLE
